unsat
(define-fun f ((x (_ BitVec 64))) (_ BitVec 64) (let ((_let_1 (arba x))) (let ((_let_2 (shesh _let_1))) (let ((_let_3 (bvand #b0000000000000000000000000000000000000000000000000000000000000001 (shesh (smol x))))) (let ((_let_4 (bvand #b0000000000000000000000000000000000000000000000000000000000000001 x))) (im _let_4 (im (bvand #b0000000000000000000000000000000000000000000000000000000000000001 (ehad x)) (im (bvand #b0000000000000000000000000000000000000000000000000000000000000001 _let_1) _let_4 _let_2) (im (bvand #b0000000000000000000000000000000000000000000000000000000000000001 (shesh x)) (im _let_3 _let_2 #b0000000000000000000000000000000000000000000000000000000000000001) _let_2)) (im _let_3 #b0000000000000000000000000000000000000000000000000000000000000000 _let_2)))))))
2.27user 0.03system 0:02.31elapsed 99%CPU (0avgtext+0avgdata 44408maxresident)k
16inputs+8outputs (0major+8837minor)pagefaults 0swaps
